unsat
(:cnf-encoding-aux-vars   1
 :eliminated-applications 3
 :eliminated-vars         29
 :max-memory              18.15
 :memory                  18.05
 :nlsat-conflicts         21
 :nlsat-decisions         18
 :nlsat-propagations      120
 :nlsat-stages            37
 :num-allocs              34455
 :rlimit-count            11903
 :time                    0.00
 :total-time              0.01)
